(set-info :smt-lib-version 2.6)
(set-logic QF_LRA)
(set-info :source |
Fully parameterized specification and verification of a synchronizer   
circuit modeling metastability at various levels of refinement.     
A paper describing this specification, to be published in Designing     
Correct Circuits (DCC), 2006, is available from the authors.            

Geoffrey Brown, Indiana University <geobrown@cs.indiana.edu>
Lee Pike, Galois Connections, Inc. <leepike@galois.com>

Translated into CVC format by Leonardo de Moura.

This benchmark was automatically translated into SMT-LIB format from
CVC format using CVC Lite

|)
(set-info :category "industrial")
(set-info :status sat)
(declare-fun x_0 () Bool)
(declare-fun x_1 () Bool)
(declare-fun x_2 () Real)
(declare-fun x_3 () Real)
(declare-fun x_4 () Bool)
(declare-fun x_5 () Bool)
(declare-fun x_6 () Real)
(declare-fun x_7 () Real)
(declare-fun x_8 () Bool)
(declare-fun x_9 () Bool)
(declare-fun x_10 () Real)
(declare-fun x_11 () Real)
(declare-fun x_12 () Bool)
(declare-fun x_13 () Bool)
(declare-fun x_14 () Real)
(declare-fun x_15 () Real)
(declare-fun x_16 () Bool)
(declare-fun x_17 () Bool)
(declare-fun x_18 () Real)
(declare-fun x_19 () Real)
(declare-fun x_20 () Bool)
(declare-fun x_21 () Bool)
(declare-fun x_22 () Real)
(declare-fun x_23 () Real)
(declare-fun x_24 () Bool)
(declare-fun x_25 () Bool)
(declare-fun x_26 () Real)
(declare-fun x_27 () Real)
(declare-fun x_28 () Bool)
(declare-fun x_29 () Bool)
(declare-fun x_30 () Real)
(declare-fun x_31 () Real)
(declare-fun x_32 () Bool)
(declare-fun x_33 () Bool)
(declare-fun x_34 () Real)
(declare-fun x_35 () Real)
(declare-fun x_36 () Bool)
(declare-fun x_37 () Bool)
(declare-fun x_38 () Real)
(declare-fun x_39 () Real)
(declare-fun x_40 () Bool)
(declare-fun x_41 () Bool)
(declare-fun x_42 () Real)
(declare-fun x_43 () Real)
(declare-fun x_44 () Bool)
(declare-fun x_45 () Bool)
(declare-fun x_46 () Real)
(declare-fun x_47 () Real)
(declare-fun x_48 () Bool)
(declare-fun x_49 () Bool)
(declare-fun x_50 () Real)
(declare-fun x_51 () Real)
(declare-fun x_52 () Bool)
(declare-fun x_53 () Bool)
(declare-fun x_54 () Real)
(declare-fun x_55 () Real)
(declare-fun x_56 () Bool)
(declare-fun x_57 () Bool)
(declare-fun x_58 () Real)
(declare-fun x_59 () Real)
(declare-fun x_60 () Bool)
(declare-fun x_61 () Bool)
(declare-fun x_62 () Real)
(declare-fun x_63 () Real)
(declare-fun x_64 () Real)
(declare-fun x_65 () Real)
(declare-fun x_66 () Real)
(declare-fun x_67 () Real)
(declare-fun x_68 () Real)
(declare-fun x_69 () Real)
(declare-fun x_70 () Real)
(declare-fun x_71 () Real)
(declare-fun x_72 () Real)
(declare-fun x_73 () Real)
(declare-fun x_74 () Bool)
(declare-fun x_75 () Bool)
(declare-fun x_76 () Real)
(declare-fun x_77 () Real)
(declare-fun x_78 () Real)
(declare-fun x_79 () Real)
(declare-fun x_80 () Bool)
(declare-fun x_81 () Bool)
(declare-fun x_82 () Bool)
(declare-fun x_83 () Bool)
(declare-fun x_84 () Bool)
(declare-fun x_85 () Real)
(declare-fun x_86 () Bool)
(declare-fun x_87 () Real)
(declare-fun x_88 () Real)
(declare-fun x_89 () Real)
(declare-fun x_90 () Real)
(declare-fun x_91 () Real)
(declare-fun x_92 () Real)
(declare-fun x_93 () Real)
(declare-fun x_94 () Real)
(declare-fun x_95 () Real)
(declare-fun x_96 () Bool)
(declare-fun x_97 () Real)
(declare-fun x_98 () Bool)
(declare-fun x_99 () Bool)
(declare-fun x_100 () Real)
(declare-fun x_101 () Bool)
(declare-fun x_102 () Real)
(declare-fun x_103 () Real)
(declare-fun x_104 () Real)
(declare-fun x_105 () Real)
(declare-fun x_106 () Real)
(declare-fun x_107 () Real)
(declare-fun x_108 () Real)
(declare-fun x_109 () Real)
(declare-fun x_110 () Bool)
(declare-fun x_111 () Real)
(declare-fun x_112 () Bool)
(declare-fun x_113 () Bool)
(declare-fun x_114 () Real)
(declare-fun x_115 () Bool)
(declare-fun x_116 () Real)
(declare-fun x_117 () Real)
(declare-fun x_118 () Real)
(declare-fun x_119 () Real)
(declare-fun x_120 () Real)
(declare-fun x_121 () Real)
(declare-fun x_122 () Real)
(declare-fun x_123 () Real)
(declare-fun x_124 () Bool)
(declare-fun x_125 () Real)
(declare-fun x_126 () Bool)
(declare-fun x_127 () Bool)
(declare-fun x_128 () Real)
(declare-fun x_129 () Bool)
(declare-fun x_130 () Real)
(declare-fun x_131 () Real)
(declare-fun x_132 () Real)
(declare-fun x_133 () Real)
(declare-fun x_134 () Real)
(declare-fun x_135 () Real)
(declare-fun x_136 () Real)
(declare-fun x_137 () Real)
(declare-fun x_138 () Bool)
(declare-fun x_139 () Real)
(declare-fun x_140 () Bool)
(declare-fun x_141 () Bool)
(declare-fun x_142 () Real)
(declare-fun x_143 () Bool)
(declare-fun x_144 () Real)
(declare-fun x_145 () Real)
(declare-fun x_146 () Real)
(declare-fun x_147 () Real)
(declare-fun x_148 () Real)
(declare-fun x_149 () Real)
(declare-fun x_150 () Real)
(declare-fun x_151 () Real)
(declare-fun x_152 () Bool)
(declare-fun x_153 () Real)
(declare-fun x_154 () Bool)
(declare-fun x_155 () Bool)
(declare-fun x_156 () Real)
(declare-fun x_157 () Bool)
(declare-fun x_158 () Real)
(declare-fun x_159 () Real)
(declare-fun x_160 () Real)
(declare-fun x_161 () Real)
(declare-fun x_162 () Real)
(declare-fun x_163 () Real)
(declare-fun x_164 () Real)
(declare-fun x_165 () Real)
(declare-fun x_166 () Bool)
(declare-fun x_167 () Real)
(declare-fun x_168 () Bool)
(declare-fun x_169 () Bool)
(declare-fun x_170 () Real)
(declare-fun x_171 () Bool)
(declare-fun x_172 () Real)
(declare-fun x_173 () Real)
(declare-fun x_174 () Real)
(declare-fun x_175 () Real)
(declare-fun x_176 () Real)
(declare-fun x_177 () Real)
(declare-fun x_178 () Real)
(declare-fun x_179 () Real)
(declare-fun x_180 () Bool)
(declare-fun x_181 () Real)
(declare-fun x_182 () Bool)
(declare-fun x_183 () Bool)
(declare-fun x_184 () Real)
(declare-fun x_185 () Bool)
(declare-fun x_186 () Real)
(declare-fun x_187 () Real)
(declare-fun x_188 () Real)
(declare-fun x_189 () Real)
(declare-fun x_190 () Real)
(declare-fun x_191 () Real)
(declare-fun x_192 () Real)
(declare-fun x_193 () Real)
(declare-fun x_194 () Bool)
(declare-fun x_195 () Real)
(declare-fun x_196 () Bool)
(declare-fun x_197 () Bool)
(declare-fun x_198 () Real)
(declare-fun x_199 () Bool)
(declare-fun x_200 () Real)
(declare-fun x_201 () Real)
(declare-fun x_202 () Real)
(declare-fun x_203 () Real)
(declare-fun x_204 () Real)
(declare-fun x_205 () Real)
(declare-fun x_206 () Real)
(declare-fun x_207 () Real)
(declare-fun x_208 () Bool)
(declare-fun x_209 () Real)
(declare-fun x_210 () Bool)
(declare-fun x_211 () Bool)
(declare-fun x_212 () Real)
(declare-fun x_213 () Bool)
(declare-fun x_214 () Real)
(declare-fun x_215 () Real)
(declare-fun x_216 () Real)
(declare-fun x_217 () Real)
(declare-fun x_218 () Real)
(declare-fun x_219 () Real)
(declare-fun x_220 () Real)
(declare-fun x_221 () Real)
(declare-fun x_222 () Bool)
(declare-fun x_223 () Real)
(declare-fun x_224 () Bool)
(declare-fun x_225 () Bool)
(declare-fun x_226 () Real)
(declare-fun x_227 () Bool)
(declare-fun x_228 () Real)
(declare-fun x_229 () Real)
(declare-fun x_230 () Real)
(declare-fun x_231 () Real)
(declare-fun x_232 () Real)
(declare-fun x_233 () Real)
(declare-fun x_234 () Real)
(declare-fun x_235 () Real)
(declare-fun x_236 () Bool)
(declare-fun x_237 () Real)
(declare-fun x_238 () Bool)
(declare-fun x_239 () Bool)
(declare-fun x_240 () Real)
(declare-fun x_241 () Bool)
(declare-fun x_242 () Real)
(declare-fun x_243 () Real)
(declare-fun x_244 () Real)
(declare-fun x_245 () Real)
(declare-fun x_246 () Real)
(declare-fun x_247 () Real)
(declare-fun x_248 () Real)
(declare-fun x_249 () Real)
(declare-fun x_250 () Bool)
(declare-fun x_251 () Real)
(declare-fun x_252 () Bool)
(declare-fun x_253 () Bool)
(declare-fun x_254 () Real)
(declare-fun x_255 () Bool)
(declare-fun x_256 () Real)
(declare-fun x_257 () Real)
(declare-fun x_258 () Real)
(declare-fun x_259 () Real)
(declare-fun x_260 () Real)
(declare-fun x_261 () Real)
(declare-fun x_262 () Real)
(declare-fun x_263 () Real)
(declare-fun x_264 () Bool)
(declare-fun x_265 () Real)
(declare-fun x_266 () Bool)
(declare-fun x_267 () Bool)
(declare-fun x_268 () Real)
(declare-fun x_269 () Bool)
(declare-fun x_270 () Real)
(declare-fun x_271 () Real)
(declare-fun x_272 () Real)
(declare-fun x_273 () Real)
(declare-fun x_274 () Real)
(declare-fun x_275 () Real)
(declare-fun x_276 () Real)
(declare-fun x_277 () Real)
(declare-fun x_278 () Bool)
(declare-fun x_279 () Real)
(declare-fun x_280 () Bool)
(declare-fun x_281 () Bool)
(declare-fun x_282 () Real)
(declare-fun x_283 () Bool)
(declare-fun x_284 () Real)
(declare-fun x_285 () Real)
(declare-fun x_286 () Real)
(declare-fun x_287 () Real)
(declare-fun x_288 () Real)
(declare-fun x_289 () Real)
(declare-fun x_290 () Real)
(declare-fun x_291 () Real)
(declare-fun x_292 () Bool)
(declare-fun x_293 () Real)
(declare-fun x_294 () Real)
(declare-fun x_295 () Bool)
(declare-fun x_296 () Bool)
(declare-fun x_297 () Bool)
(declare-fun x_298 () Bool)
(declare-fun x_299 () Real)
(declare-fun x_300 () Bool)
(declare-fun x_301 () Real)
(declare-fun x_302 () Real)
(declare-fun x_303 () Real)
(declare-fun x_304 () Real)
(assert (let ((?v_201 (= x_64 x_65)) (?v_202 (= x_66 x_67)) (?v_203 (= x_68 x_69)) (?v_199 (= x_70 x_71))) (let ((?v_204 (not ?v_199)) (?v_207 (= x_72 x_73)) (?v_196 (= x_74 x_75)) (?v_197 (= x_7 x_3)) (?v_200 (ite (<= x_66 x_70) x_66 x_70)) (?v_195 (ite (<= x_70 x_66) x_70 x_66)) (?v_188 (= x_91 x_64)) (?v_189 (= x_67 x_92)) (?v_190 (= x_93 x_68)) (?v_186 (= x_71 x_94))) (let ((?v_191 (not ?v_186)) (?v_194 (= x_95 x_72)) (?v_183 (= x_96 x_74)) (?v_184 (= x_11 x_7)) (?v_187 (ite (<= x_67 x_71) x_67 x_71)) (?v_182 (ite (<= x_71 x_67) x_71 x_67)) (?v_175 (= x_105 x_91)) (?v_176 (= x_92 x_106)) (?v_177 (= x_107 x_93)) (?v_173 (= x_94 x_108))) (let ((?v_178 (not ?v_173)) (?v_181 (= x_109 x_95)) (?v_170 (= x_110 x_96)) (?v_171 (= x_15 x_11)) (?v_174 (ite (<= x_92 x_94) x_92 x_94)) (?v_169 (ite (<= x_94 x_92) x_94 x_92)) (?v_162 (= x_119 x_105)) (?v_163 (= x_106 x_120)) (?v_164 (= x_121 x_107)) (?v_160 (= x_108 x_122))) (let ((?v_165 (not ?v_160)) (?v_168 (= x_123 x_109)) (?v_157 (= x_124 x_110)) (?v_158 (= x_19 x_15)) (?v_161 (ite (<= x_106 x_108) x_106 x_108)) (?v_156 (ite (<= x_108 x_106) x_108 x_106)) (?v_149 (= x_133 x_119)) (?v_150 (= x_120 x_134)) (?v_151 (= x_135 x_121)) (?v_147 (= x_122 x_136))) (let ((?v_152 (not ?v_147)) (?v_155 (= x_137 x_123)) (?v_144 (= x_138 x_124)) (?v_145 (= x_23 x_19)) (?v_148 (ite (<= x_120 x_122) x_120 x_122)) (?v_143 (ite (<= x_122 x_120) x_122 x_120)) (?v_136 (= x_147 x_133)) (?v_137 (= x_134 x_148)) (?v_138 (= x_149 x_135)) (?v_134 (= x_136 x_150))) (let ((?v_139 (not ?v_134)) (?v_142 (= x_151 x_137)) (?v_131 (= x_152 x_138)) (?v_132 (= x_27 x_23)) (?v_135 (ite (<= x_134 x_136) x_134 x_136)) (?v_130 (ite (<= x_136 x_134) x_136 x_134)) (?v_123 (= x_161 x_147)) (?v_124 (= x_148 x_162)) (?v_125 (= x_163 x_149)) (?v_121 (= x_150 x_164))) (let ((?v_126 (not ?v_121)) (?v_129 (= x_165 x_151)) (?v_118 (= x_166 x_152)) (?v_119 (= x_31 x_27)) (?v_122 (ite (<= x_148 x_150) x_148 x_150)) (?v_117 (ite (<= x_150 x_148) x_150 x_148)) (?v_110 (= x_175 x_161)) (?v_111 (= x_162 x_176)) (?v_112 (= x_177 x_163)) (?v_108 (= x_164 x_178))) (let ((?v_113 (not ?v_108)) (?v_116 (= x_179 x_165)) (?v_105 (= x_180 x_166)) (?v_106 (= x_35 x_31)) (?v_109 (ite (<= x_162 x_164) x_162 x_164)) (?v_104 (ite (<= x_164 x_162) x_164 x_162)) (?v_97 (= x_189 x_175)) (?v_98 (= x_176 x_190)) (?v_99 (= x_191 x_177)) (?v_95 (= x_178 x_192))) (let ((?v_100 (not ?v_95)) (?v_103 (= x_193 x_179)) (?v_92 (= x_194 x_180)) (?v_93 (= x_39 x_35)) (?v_96 (ite (<= x_176 x_178) x_176 x_178)) (?v_91 (ite (<= x_178 x_176) x_178 x_176)) (?v_84 (= x_203 x_189)) (?v_85 (= x_190 x_204)) (?v_86 (= x_205 x_191)) (?v_82 (= x_192 x_206))) (let ((?v_87 (not ?v_82)) (?v_90 (= x_207 x_193)) (?v_79 (= x_208 x_194)) (?v_80 (= x_43 x_39)) (?v_83 (ite (<= x_190 x_192) x_190 x_192)) (?v_78 (ite (<= x_192 x_190) x_192 x_190)) (?v_71 (= x_217 x_203)) (?v_72 (= x_204 x_218)) (?v_73 (= x_219 x_205)) (?v_69 (= x_206 x_220))) (let ((?v_74 (not ?v_69)) (?v_77 (= x_221 x_207)) (?v_66 (= x_222 x_208)) (?v_67 (= x_47 x_43)) (?v_70 (ite (<= x_204 x_206) x_204 x_206)) (?v_65 (ite (<= x_206 x_204) x_206 x_204)) (?v_58 (= x_231 x_217)) (?v_59 (= x_218 x_232)) (?v_60 (= x_233 x_219)) (?v_56 (= x_220 x_234))) (let ((?v_61 (not ?v_56)) (?v_64 (= x_235 x_221)) (?v_53 (= x_236 x_222)) (?v_54 (= x_51 x_47)) (?v_57 (ite (<= x_218 x_220) x_218 x_220)) (?v_52 (ite (<= x_220 x_218) x_220 x_218)) (?v_45 (= x_245 x_231)) (?v_46 (= x_232 x_246)) (?v_47 (= x_247 x_233)) (?v_43 (= x_234 x_248))) (let ((?v_48 (not ?v_43)) (?v_51 (= x_249 x_235)) (?v_40 (= x_250 x_236)) (?v_41 (= x_55 x_51)) (?v_44 (ite (<= x_232 x_234) x_232 x_234)) (?v_39 (ite (<= x_234 x_232) x_234 x_232)) (?v_32 (= x_259 x_245)) (?v_33 (= x_246 x_260)) (?v_34 (= x_261 x_247)) (?v_30 (= x_248 x_262))) (let ((?v_35 (not ?v_30)) (?v_38 (= x_263 x_249)) (?v_27 (= x_264 x_250)) (?v_28 (= x_59 x_55)) (?v_31 (ite (<= x_246 x_248) x_246 x_248)) (?v_26 (ite (<= x_248 x_246) x_248 x_246)) (?v_19 (= x_273 x_259)) (?v_20 (= x_260 x_274)) (?v_21 (= x_275 x_261)) (?v_17 (= x_262 x_276))) (let ((?v_22 (not ?v_17)) (?v_25 (= x_277 x_263)) (?v_14 (= x_278 x_264)) (?v_15 (= x_63 x_59)) (?v_18 (ite (<= x_260 x_262) x_260 x_262)) (?v_13 (ite (<= x_262 x_260) x_262 x_260)) (?v_6 (= x_287 x_273)) (?v_7 (= x_274 x_288)) (?v_8 (= x_289 x_275)) (?v_4 (= x_276 x_290))) (let ((?v_9 (not ?v_4)) (?v_12 (= x_291 x_277)) (?v_1 (= x_292 x_278)) (?v_2 (= x_293 x_63)) (?v_5 (ite (<= x_274 x_276) x_274 x_276)) (?v_0 (ite (<= x_276 x_274) x_276 x_274)) (?v_3 (= x_296 x_61)) (?v_11 (= x_63 x_293)) (?v_16 (= x_61 x_57)) (?v_24 (= x_59 x_63)) (?v_29 (= x_57 x_53)) (?v_37 (= x_55 x_59)) (?v_42 (= x_53 x_49)) (?v_50 (= x_51 x_55)) (?v_55 (= x_49 x_45)) (?v_63 (= x_47 x_51)) (?v_68 (= x_45 x_41)) (?v_76 (= x_43 x_47)) (?v_81 (= x_41 x_37)) (?v_89 (= x_39 x_43)) (?v_94 (= x_37 x_33)) (?v_102 (= x_35 x_39)) (?v_107 (= x_33 x_29)) (?v_115 (= x_31 x_35)) (?v_120 (= x_29 x_25)) (?v_128 (= x_27 x_31)) (?v_133 (= x_25 x_21)) (?v_141 (= x_23 x_27)) (?v_146 (= x_21 x_17)) (?v_154 (= x_19 x_23)) (?v_159 (= x_17 x_13)) (?v_167 (= x_15 x_19)) (?v_172 (= x_13 x_9)) (?v_180 (= x_11 x_15)) (?v_185 (= x_9 x_5)) (?v_193 (= x_7 x_11)) (?v_198 (= x_5 x_1)) (?v_206 (= x_3 x_7))) (let ((?v_10 (+ ?v_5 x_78)) (?v_23 (+ ?v_18 x_78)) (?v_36 (+ ?v_31 x_78)) (?v_49 (+ ?v_44 x_78)) (?v_62 (+ ?v_57 x_78)) (?v_75 (+ ?v_70 x_78)) (?v_88 (+ ?v_83 x_78)) (?v_101 (+ ?v_96 x_78)) (?v_114 (+ ?v_109 x_78)) (?v_127 (+ ?v_122 x_78)) (?v_140 (+ ?v_135 x_78)) (?v_153 (+ ?v_148 x_78)) (?v_166 (+ ?v_161 x_78)) (?v_179 (+ ?v_174 x_78)) (?v_192 (+ ?v_187 x_78)) (?v_205 (+ ?v_200 x_78))) (and (and (and (and (and (and (and (and (and (and (and (and (and (and (and (and (and (and (and (and (and (and (and (and (and (and (and (and (and (and (and (and (and (and (and (and (and (and (and (and (and (and (and (and (and (and (and (and (and (and (and (and (and (and (and (and (and (and (and (and (and (and (and (and (and (and (and (and (and (and (and (and (and (and (and (and (and (and (and (and (and (and (and (and (and (and (and (and (and (> x_76 0) (> x_77 0)) (>= x_78 0)) (< x_78 x_76)) (< x_78 x_77)) (>= x_89 0)) (< x_89 x_76)) (< x_89 x_77)) (or (= x_60 x_61) (= x_62 x_63))) (or (= x_56 x_57) (= x_58 x_59))) (or (= x_52 x_53) (= x_54 x_55))) (or (= x_48 x_49) (= x_50 x_51))) (or (= x_44 x_45) (= x_46 x_47))) (or (= x_40 x_41) (= x_42 x_43))) (or (= x_36 x_37) (= x_38 x_39))) (or (= x_32 x_33) (= x_34 x_35))) (or (= x_28 x_29) (= x_30 x_31))) (or (= x_24 x_25) (= x_26 x_27))) (or (= x_20 x_21) (= x_22 x_23))) (or (= x_16 x_17) (= x_18 x_19))) (or (= x_12 x_13) (= x_14 x_15))) (or (= x_8 x_9) (= x_10 x_11))) (or (= x_4 x_5) (= x_6 x_7))) (or (= x_0 x_1) (= x_2 x_3))) (or (and (and (and (and (and (and (and (and (and (= x_294 0) (= x_295 x_283)) (= ?v_0 x_276)) (<= (+ ?v_0 x_76) x_290)) (or ?v_3 (= x_296 x_60))) (= x_297 x_280)) (= x_298 x_281)) (= x_288 x_274)) ?v_1) ?v_2) (and (and (and (and (and (and (and (and (and (= x_294 1) (= x_298 x_280)) (= ?v_0 x_274)) (<= (+ ?v_0 x_77) x_288)) (or (and (and (= x_299 0) ?v_1) ?v_2) (and (and (= x_299 1) (= x_278 x_281)) (= x_292 (not x_278))))) (= x_300 x_283)) (= x_295 x_60)) (= x_301 x_62)) (= x_290 x_276)) ?v_3))) (or (or (and (and (and (= x_302 0) ?v_9) (or (not (<= x_273 ?v_5)) (= x_300 x_278))) ?v_6) (and (and (and (= x_302 1) ?v_4) (xor x_278 x_292)) (= x_287 ?v_10))) (and (and (and (= x_302 2) ?v_4) (= x_278 x_292)) ?v_6))) (or (or (and (and (and (= x_303 0) (not ?v_7)) (or (not (<= x_275 ?v_0)) (= x_297 x_61))) ?v_8) (and (and (and (= x_303 1) ?v_7) (xor x_61 x_296)) (= x_289 (+ ?v_0 x_89)))) (and (and (and (= x_303 2) ?v_7) (= x_61 x_296)) ?v_8))) (or (or (and (and (and (= x_304 0) ?v_9) (or (not (<= x_277 ?v_5)) (= x_301 x_63))) ?v_12) (and (and (and (= x_304 1) ?v_4) (not ?v_11)) (= x_291 ?v_10))) (and (and (and (= x_304 2) ?v_4) ?v_11) ?v_12))) (or (and (and (and (and (and (and (and (and (and (= x_279 0) (= x_60 x_269)) (= ?v_13 x_262)) (<= (+ ?v_13 x_76) x_276)) (or ?v_16 (= x_61 x_56))) (= x_280 x_266)) (= x_281 x_267)) (= x_274 x_260)) ?v_14) ?v_15) (and (and (and (and (and (and (and (and (and (= x_279 1) (= x_281 x_266)) (= ?v_13 x_260)) (<= (+ ?v_13 x_77) x_274)) (or (and (and (= x_282 0) ?v_14) ?v_15) (and (and (= x_282 1) (= x_264 x_267)) (= x_278 (not x_264))))) (= x_283 x_269)) (= x_60 x_56)) (= x_62 x_58)) (= x_276 x_262)) ?v_16))) (or (or (and (and (and (= x_284 0) ?v_22) (or (not (<= x_259 ?v_18)) (= x_283 x_264))) ?v_19) (and (and (and (= x_284 1) ?v_17) (xor x_264 x_278)) (= x_273 ?v_23))) (and (and (and (= x_284 2) ?v_17) (= x_264 x_278)) ?v_19))) (or (or (and (and (and (= x_285 0) (not ?v_20)) (or (not (<= x_261 ?v_13)) (= x_280 x_57))) ?v_21) (and (and (and (= x_285 1) ?v_20) (xor x_57 x_61)) (= x_275 (+ ?v_13 x_89)))) (and (and (and (= x_285 2) ?v_20) (= x_57 x_61)) ?v_21))) (or (or (and (and (and (= x_286 0) ?v_22) (or (not (<= x_263 ?v_18)) (= x_62 x_59))) ?v_25) (and (and (and (= x_286 1) ?v_17) (not ?v_24)) (= x_277 ?v_23))) (and (and (and (= x_286 2) ?v_17) ?v_24) ?v_25))) (or (and (and (and (and (and (and (and (and (and (= x_265 0) (= x_56 x_255)) (= ?v_26 x_248)) (<= (+ ?v_26 x_76) x_262)) (or ?v_29 (= x_57 x_52))) (= x_266 x_252)) (= x_267 x_253)) (= x_260 x_246)) ?v_27) ?v_28) (and (and (and (and (and (and (and (and (and (= x_265 1) (= x_267 x_252)) (= ?v_26 x_246)) (<= (+ ?v_26 x_77) x_260)) (or (and (and (= x_268 0) ?v_27) ?v_28) (and (and (= x_268 1) (= x_250 x_253)) (= x_264 (not x_250))))) (= x_269 x_255)) (= x_56 x_52)) (= x_58 x_54)) (= x_262 x_248)) ?v_29))) (or (or (and (and (and (= x_270 0) ?v_35) (or (not (<= x_245 ?v_31)) (= x_269 x_250))) ?v_32) (and (and (and (= x_270 1) ?v_30) (xor x_250 x_264)) (= x_259 ?v_36))) (and (and (and (= x_270 2) ?v_30) (= x_250 x_264)) ?v_32))) (or (or (and (and (and (= x_271 0) (not ?v_33)) (or (not (<= x_247 ?v_26)) (= x_266 x_53))) ?v_34) (and (and (and (= x_271 1) ?v_33) (xor x_53 x_57)) (= x_261 (+ ?v_26 x_89)))) (and (and (and (= x_271 2) ?v_33) (= x_53 x_57)) ?v_34))) (or (or (and (and (and (= x_272 0) ?v_35) (or (not (<= x_249 ?v_31)) (= x_58 x_55))) ?v_38) (and (and (and (= x_272 1) ?v_30) (not ?v_37)) (= x_263 ?v_36))) (and (and (and (= x_272 2) ?v_30) ?v_37) ?v_38))) (or (and (and (and (and (and (and (and (and (and (= x_251 0) (= x_52 x_241)) (= ?v_39 x_234)) (<= (+ ?v_39 x_76) x_248)) (or ?v_42 (= x_53 x_48))) (= x_252 x_238)) (= x_253 x_239)) (= x_246 x_232)) ?v_40) ?v_41) (and (and (and (and (and (and (and (and (and (= x_251 1) (= x_253 x_238)) (= ?v_39 x_232)) (<= (+ ?v_39 x_77) x_246)) (or (and (and (= x_254 0) ?v_40) ?v_41) (and (and (= x_254 1) (= x_236 x_239)) (= x_250 (not x_236))))) (= x_255 x_241)) (= x_52 x_48)) (= x_54 x_50)) (= x_248 x_234)) ?v_42))) (or (or (and (and (and (= x_256 0) ?v_48) (or (not (<= x_231 ?v_44)) (= x_255 x_236))) ?v_45) (and (and (and (= x_256 1) ?v_43) (xor x_236 x_250)) (= x_245 ?v_49))) (and (and (and (= x_256 2) ?v_43) (= x_236 x_250)) ?v_45))) (or (or (and (and (and (= x_257 0) (not ?v_46)) (or (not (<= x_233 ?v_39)) (= x_252 x_49))) ?v_47) (and (and (and (= x_257 1) ?v_46) (xor x_49 x_53)) (= x_247 (+ ?v_39 x_89)))) (and (and (and (= x_257 2) ?v_46) (= x_49 x_53)) ?v_47))) (or (or (and (and (and (= x_258 0) ?v_48) (or (not (<= x_235 ?v_44)) (= x_54 x_51))) ?v_51) (and (and (and (= x_258 1) ?v_43) (not ?v_50)) (= x_249 ?v_49))) (and (and (and (= x_258 2) ?v_43) ?v_50) ?v_51))) (or (and (and (and (and (and (and (and (and (and (= x_237 0) (= x_48 x_227)) (= ?v_52 x_220)) (<= (+ ?v_52 x_76) x_234)) (or ?v_55 (= x_49 x_44))) (= x_238 x_224)) (= x_239 x_225)) (= x_232 x_218)) ?v_53) ?v_54) (and (and (and (and (and (and (and (and (and (= x_237 1) (= x_239 x_224)) (= ?v_52 x_218)) (<= (+ ?v_52 x_77) x_232)) (or (and (and (= x_240 0) ?v_53) ?v_54) (and (and (= x_240 1) (= x_222 x_225)) (= x_236 (not x_222))))) (= x_241 x_227)) (= x_48 x_44)) (= x_50 x_46)) (= x_234 x_220)) ?v_55))) (or (or (and (and (and (= x_242 0) ?v_61) (or (not (<= x_217 ?v_57)) (= x_241 x_222))) ?v_58) (and (and (and (= x_242 1) ?v_56) (xor x_222 x_236)) (= x_231 ?v_62))) (and (and (and (= x_242 2) ?v_56) (= x_222 x_236)) ?v_58))) (or (or (and (and (and (= x_243 0) (not ?v_59)) (or (not (<= x_219 ?v_52)) (= x_238 x_45))) ?v_60) (and (and (and (= x_243 1) ?v_59) (xor x_45 x_49)) (= x_233 (+ ?v_52 x_89)))) (and (and (and (= x_243 2) ?v_59) (= x_45 x_49)) ?v_60))) (or (or (and (and (and (= x_244 0) ?v_61) (or (not (<= x_221 ?v_57)) (= x_50 x_47))) ?v_64) (and (and (and (= x_244 1) ?v_56) (not ?v_63)) (= x_235 ?v_62))) (and (and (and (= x_244 2) ?v_56) ?v_63) ?v_64))) (or (and (and (and (and (and (and (and (and (and (= x_223 0) (= x_44 x_213)) (= ?v_65 x_206)) (<= (+ ?v_65 x_76) x_220)) (or ?v_68 (= x_45 x_40))) (= x_224 x_210)) (= x_225 x_211)) (= x_218 x_204)) ?v_66) ?v_67) (and (and (and (and (and (and (and (and (and (= x_223 1) (= x_225 x_210)) (= ?v_65 x_204)) (<= (+ ?v_65 x_77) x_218)) (or (and (and (= x_226 0) ?v_66) ?v_67) (and (and (= x_226 1) (= x_208 x_211)) (= x_222 (not x_208))))) (= x_227 x_213)) (= x_44 x_40)) (= x_46 x_42)) (= x_220 x_206)) ?v_68))) (or (or (and (and (and (= x_228 0) ?v_74) (or (not (<= x_203 ?v_70)) (= x_227 x_208))) ?v_71) (and (and (and (= x_228 1) ?v_69) (xor x_208 x_222)) (= x_217 ?v_75))) (and (and (and (= x_228 2) ?v_69) (= x_208 x_222)) ?v_71))) (or (or (and (and (and (= x_229 0) (not ?v_72)) (or (not (<= x_205 ?v_65)) (= x_224 x_41))) ?v_73) (and (and (and (= x_229 1) ?v_72) (xor x_41 x_45)) (= x_219 (+ ?v_65 x_89)))) (and (and (and (= x_229 2) ?v_72) (= x_41 x_45)) ?v_73))) (or (or (and (and (and (= x_230 0) ?v_74) (or (not (<= x_207 ?v_70)) (= x_46 x_43))) ?v_77) (and (and (and (= x_230 1) ?v_69) (not ?v_76)) (= x_221 ?v_75))) (and (and (and (= x_230 2) ?v_69) ?v_76) ?v_77))) (or (and (and (and (and (and (and (and (and (and (= x_209 0) (= x_40 x_199)) (= ?v_78 x_192)) (<= (+ ?v_78 x_76) x_206)) (or ?v_81 (= x_41 x_36))) (= x_210 x_196)) (= x_211 x_197)) (= x_204 x_190)) ?v_79) ?v_80) (and (and (and (and (and (and (and (and (and (= x_209 1) (= x_211 x_196)) (= ?v_78 x_190)) (<= (+ ?v_78 x_77) x_204)) (or (and (and (= x_212 0) ?v_79) ?v_80) (and (and (= x_212 1) (= x_194 x_197)) (= x_208 (not x_194))))) (= x_213 x_199)) (= x_40 x_36)) (= x_42 x_38)) (= x_206 x_192)) ?v_81))) (or (or (and (and (and (= x_214 0) ?v_87) (or (not (<= x_189 ?v_83)) (= x_213 x_194))) ?v_84) (and (and (and (= x_214 1) ?v_82) (xor x_194 x_208)) (= x_203 ?v_88))) (and (and (and (= x_214 2) ?v_82) (= x_194 x_208)) ?v_84))) (or (or (and (and (and (= x_215 0) (not ?v_85)) (or (not (<= x_191 ?v_78)) (= x_210 x_37))) ?v_86) (and (and (and (= x_215 1) ?v_85) (xor x_37 x_41)) (= x_205 (+ ?v_78 x_89)))) (and (and (and (= x_215 2) ?v_85) (= x_37 x_41)) ?v_86))) (or (or (and (and (and (= x_216 0) ?v_87) (or (not (<= x_193 ?v_83)) (= x_42 x_39))) ?v_90) (and (and (and (= x_216 1) ?v_82) (not ?v_89)) (= x_207 ?v_88))) (and (and (and (= x_216 2) ?v_82) ?v_89) ?v_90))) (or (and (and (and (and (and (and (and (and (and (= x_195 0) (= x_36 x_185)) (= ?v_91 x_178)) (<= (+ ?v_91 x_76) x_192)) (or ?v_94 (= x_37 x_32))) (= x_196 x_182)) (= x_197 x_183)) (= x_190 x_176)) ?v_92) ?v_93) (and (and (and (and (and (and (and (and (and (= x_195 1) (= x_197 x_182)) (= ?v_91 x_176)) (<= (+ ?v_91 x_77) x_190)) (or (and (and (= x_198 0) ?v_92) ?v_93) (and (and (= x_198 1) (= x_180 x_183)) (= x_194 (not x_180))))) (= x_199 x_185)) (= x_36 x_32)) (= x_38 x_34)) (= x_192 x_178)) ?v_94))) (or (or (and (and (and (= x_200 0) ?v_100) (or (not (<= x_175 ?v_96)) (= x_199 x_180))) ?v_97) (and (and (and (= x_200 1) ?v_95) (xor x_180 x_194)) (= x_189 ?v_101))) (and (and (and (= x_200 2) ?v_95) (= x_180 x_194)) ?v_97))) (or (or (and (and (and (= x_201 0) (not ?v_98)) (or (not (<= x_177 ?v_91)) (= x_196 x_33))) ?v_99) (and (and (and (= x_201 1) ?v_98) (xor x_33 x_37)) (= x_191 (+ ?v_91 x_89)))) (and (and (and (= x_201 2) ?v_98) (= x_33 x_37)) ?v_99))) (or (or (and (and (and (= x_202 0) ?v_100) (or (not (<= x_179 ?v_96)) (= x_38 x_35))) ?v_103) (and (and (and (= x_202 1) ?v_95) (not ?v_102)) (= x_193 ?v_101))) (and (and (and (= x_202 2) ?v_95) ?v_102) ?v_103))) (or (and (and (and (and (and (and (and (and (and (= x_181 0) (= x_32 x_171)) (= ?v_104 x_164)) (<= (+ ?v_104 x_76) x_178)) (or ?v_107 (= x_33 x_28))) (= x_182 x_168)) (= x_183 x_169)) (= x_176 x_162)) ?v_105) ?v_106) (and (and (and (and (and (and (and (and (and (= x_181 1) (= x_183 x_168)) (= ?v_104 x_162)) (<= (+ ?v_104 x_77) x_176)) (or (and (and (= x_184 0) ?v_105) ?v_106) (and (and (= x_184 1) (= x_166 x_169)) (= x_180 (not x_166))))) (= x_185 x_171)) (= x_32 x_28)) (= x_34 x_30)) (= x_178 x_164)) ?v_107))) (or (or (and (and (and (= x_186 0) ?v_113) (or (not (<= x_161 ?v_109)) (= x_185 x_166))) ?v_110) (and (and (and (= x_186 1) ?v_108) (xor x_166 x_180)) (= x_175 ?v_114))) (and (and (and (= x_186 2) ?v_108) (= x_166 x_180)) ?v_110))) (or (or (and (and (and (= x_187 0) (not ?v_111)) (or (not (<= x_163 ?v_104)) (= x_182 x_29))) ?v_112) (and (and (and (= x_187 1) ?v_111) (xor x_29 x_33)) (= x_177 (+ ?v_104 x_89)))) (and (and (and (= x_187 2) ?v_111) (= x_29 x_33)) ?v_112))) (or (or (and (and (and (= x_188 0) ?v_113) (or (not (<= x_165 ?v_109)) (= x_34 x_31))) ?v_116) (and (and (and (= x_188 1) ?v_108) (not ?v_115)) (= x_179 ?v_114))) (and (and (and (= x_188 2) ?v_108) ?v_115) ?v_116))) (or (and (and (and (and (and (and (and (and (and (= x_167 0) (= x_28 x_157)) (= ?v_117 x_150)) (<= (+ ?v_117 x_76) x_164)) (or ?v_120 (= x_29 x_24))) (= x_168 x_154)) (= x_169 x_155)) (= x_162 x_148)) ?v_118) ?v_119) (and (and (and (and (and (and (and (and (and (= x_167 1) (= x_169 x_154)) (= ?v_117 x_148)) (<= (+ ?v_117 x_77) x_162)) (or (and (and (= x_170 0) ?v_118) ?v_119) (and (and (= x_170 1) (= x_152 x_155)) (= x_166 (not x_152))))) (= x_171 x_157)) (= x_28 x_24)) (= x_30 x_26)) (= x_164 x_150)) ?v_120))) (or (or (and (and (and (= x_172 0) ?v_126) (or (not (<= x_147 ?v_122)) (= x_171 x_152))) ?v_123) (and (and (and (= x_172 1) ?v_121) (xor x_152 x_166)) (= x_161 ?v_127))) (and (and (and (= x_172 2) ?v_121) (= x_152 x_166)) ?v_123))) (or (or (and (and (and (= x_173 0) (not ?v_124)) (or (not (<= x_149 ?v_117)) (= x_168 x_25))) ?v_125) (and (and (and (= x_173 1) ?v_124) (xor x_25 x_29)) (= x_163 (+ ?v_117 x_89)))) (and (and (and (= x_173 2) ?v_124) (= x_25 x_29)) ?v_125))) (or (or (and (and (and (= x_174 0) ?v_126) (or (not (<= x_151 ?v_122)) (= x_30 x_27))) ?v_129) (and (and (and (= x_174 1) ?v_121) (not ?v_128)) (= x_165 ?v_127))) (and (and (and (= x_174 2) ?v_121) ?v_128) ?v_129))) (or (and (and (and (and (and (and (and (and (and (= x_153 0) (= x_24 x_143)) (= ?v_130 x_136)) (<= (+ ?v_130 x_76) x_150)) (or ?v_133 (= x_25 x_20))) (= x_154 x_140)) (= x_155 x_141)) (= x_148 x_134)) ?v_131) ?v_132) (and (and (and (and (and (and (and (and (and (= x_153 1) (= x_155 x_140)) (= ?v_130 x_134)) (<= (+ ?v_130 x_77) x_148)) (or (and (and (= x_156 0) ?v_131) ?v_132) (and (and (= x_156 1) (= x_138 x_141)) (= x_152 (not x_138))))) (= x_157 x_143)) (= x_24 x_20)) (= x_26 x_22)) (= x_150 x_136)) ?v_133))) (or (or (and (and (and (= x_158 0) ?v_139) (or (not (<= x_133 ?v_135)) (= x_157 x_138))) ?v_136) (and (and (and (= x_158 1) ?v_134) (xor x_138 x_152)) (= x_147 ?v_140))) (and (and (and (= x_158 2) ?v_134) (= x_138 x_152)) ?v_136))) (or (or (and (and (and (= x_159 0) (not ?v_137)) (or (not (<= x_135 ?v_130)) (= x_154 x_21))) ?v_138) (and (and (and (= x_159 1) ?v_137) (xor x_21 x_25)) (= x_149 (+ ?v_130 x_89)))) (and (and (and (= x_159 2) ?v_137) (= x_21 x_25)) ?v_138))) (or (or (and (and (and (= x_160 0) ?v_139) (or (not (<= x_137 ?v_135)) (= x_26 x_23))) ?v_142) (and (and (and (= x_160 1) ?v_134) (not ?v_141)) (= x_151 ?v_140))) (and (and (and (= x_160 2) ?v_134) ?v_141) ?v_142))) (or (and (and (and (and (and (and (and (and (and (= x_139 0) (= x_20 x_129)) (= ?v_143 x_122)) (<= (+ ?v_143 x_76) x_136)) (or ?v_146 (= x_21 x_16))) (= x_140 x_126)) (= x_141 x_127)) (= x_134 x_120)) ?v_144) ?v_145) (and (and (and (and (and (and (and (and (and (= x_139 1) (= x_141 x_126)) (= ?v_143 x_120)) (<= (+ ?v_143 x_77) x_134)) (or (and (and (= x_142 0) ?v_144) ?v_145) (and (and (= x_142 1) (= x_124 x_127)) (= x_138 (not x_124))))) (= x_143 x_129)) (= x_20 x_16)) (= x_22 x_18)) (= x_136 x_122)) ?v_146))) (or (or (and (and (and (= x_144 0) ?v_152) (or (not (<= x_119 ?v_148)) (= x_143 x_124))) ?v_149) (and (and (and (= x_144 1) ?v_147) (xor x_124 x_138)) (= x_133 ?v_153))) (and (and (and (= x_144 2) ?v_147) (= x_124 x_138)) ?v_149))) (or (or (and (and (and (= x_145 0) (not ?v_150)) (or (not (<= x_121 ?v_143)) (= x_140 x_17))) ?v_151) (and (and (and (= x_145 1) ?v_150) (xor x_17 x_21)) (= x_135 (+ ?v_143 x_89)))) (and (and (and (= x_145 2) ?v_150) (= x_17 x_21)) ?v_151))) (or (or (and (and (and (= x_146 0) ?v_152) (or (not (<= x_123 ?v_148)) (= x_22 x_19))) ?v_155) (and (and (and (= x_146 1) ?v_147) (not ?v_154)) (= x_137 ?v_153))) (and (and (and (= x_146 2) ?v_147) ?v_154) ?v_155))) (or (and (and (and (and (and (and (and (and (and (= x_125 0) (= x_16 x_115)) (= ?v_156 x_108)) (<= (+ ?v_156 x_76) x_122)) (or ?v_159 (= x_17 x_12))) (= x_126 x_112)) (= x_127 x_113)) (= x_120 x_106)) ?v_157) ?v_158) (and (and (and (and (and (and (and (and (and (= x_125 1) (= x_127 x_112)) (= ?v_156 x_106)) (<= (+ ?v_156 x_77) x_120)) (or (and (and (= x_128 0) ?v_157) ?v_158) (and (and (= x_128 1) (= x_110 x_113)) (= x_124 (not x_110))))) (= x_129 x_115)) (= x_16 x_12)) (= x_18 x_14)) (= x_122 x_108)) ?v_159))) (or (or (and (and (and (= x_130 0) ?v_165) (or (not (<= x_105 ?v_161)) (= x_129 x_110))) ?v_162) (and (and (and (= x_130 1) ?v_160) (xor x_110 x_124)) (= x_119 ?v_166))) (and (and (and (= x_130 2) ?v_160) (= x_110 x_124)) ?v_162))) (or (or (and (and (and (= x_131 0) (not ?v_163)) (or (not (<= x_107 ?v_156)) (= x_126 x_13))) ?v_164) (and (and (and (= x_131 1) ?v_163) (xor x_13 x_17)) (= x_121 (+ ?v_156 x_89)))) (and (and (and (= x_131 2) ?v_163) (= x_13 x_17)) ?v_164))) (or (or (and (and (and (= x_132 0) ?v_165) (or (not (<= x_109 ?v_161)) (= x_18 x_15))) ?v_168) (and (and (and (= x_132 1) ?v_160) (not ?v_167)) (= x_123 ?v_166))) (and (and (and (= x_132 2) ?v_160) ?v_167) ?v_168))) (or (and (and (and (and (and (and (and (and (and (= x_111 0) (= x_12 x_101)) (= ?v_169 x_94)) (<= (+ ?v_169 x_76) x_108)) (or ?v_172 (= x_13 x_8))) (= x_112 x_98)) (= x_113 x_99)) (= x_106 x_92)) ?v_170) ?v_171) (and (and (and (and (and (and (and (and (and (= x_111 1) (= x_113 x_98)) (= ?v_169 x_92)) (<= (+ ?v_169 x_77) x_106)) (or (and (and (= x_114 0) ?v_170) ?v_171) (and (and (= x_114 1) (= x_96 x_99)) (= x_110 (not x_96))))) (= x_115 x_101)) (= x_12 x_8)) (= x_14 x_10)) (= x_108 x_94)) ?v_172))) (or (or (and (and (and (= x_116 0) ?v_178) (or (not (<= x_91 ?v_174)) (= x_115 x_96))) ?v_175) (and (and (and (= x_116 1) ?v_173) (xor x_96 x_110)) (= x_105 ?v_179))) (and (and (and (= x_116 2) ?v_173) (= x_96 x_110)) ?v_175))) (or (or (and (and (and (= x_117 0) (not ?v_176)) (or (not (<= x_93 ?v_169)) (= x_112 x_9))) ?v_177) (and (and (and (= x_117 1) ?v_176) (xor x_9 x_13)) (= x_107 (+ ?v_169 x_89)))) (and (and (and (= x_117 2) ?v_176) (= x_9 x_13)) ?v_177))) (or (or (and (and (and (= x_118 0) ?v_178) (or (not (<= x_95 ?v_174)) (= x_14 x_11))) ?v_181) (and (and (and (= x_118 1) ?v_173) (not ?v_180)) (= x_109 ?v_179))) (and (and (and (= x_118 2) ?v_173) ?v_180) ?v_181))) (or (and (and (and (and (and (and (and (and (and (= x_97 0) (= x_8 x_86)) (= ?v_182 x_71)) (<= (+ ?v_182 x_76) x_94)) (or ?v_185 (= x_9 x_4))) (= x_98 x_81)) (= x_99 x_83)) (= x_92 x_67)) ?v_183) ?v_184) (and (and (and (and (and (and (and (and (and (= x_97 1) (= x_99 x_81)) (= ?v_182 x_67)) (<= (+ ?v_182 x_77) x_92)) (or (and (and (= x_100 0) ?v_183) ?v_184) (and (and (= x_100 1) (= x_74 x_83)) (= x_96 (not x_74))))) (= x_101 x_86)) (= x_8 x_4)) (= x_10 x_6)) (= x_94 x_71)) ?v_185))) (or (or (and (and (and (= x_102 0) ?v_191) (or (not (<= x_64 ?v_187)) (= x_101 x_74))) ?v_188) (and (and (and (= x_102 1) ?v_186) (xor x_74 x_96)) (= x_91 ?v_192))) (and (and (and (= x_102 2) ?v_186) (= x_74 x_96)) ?v_188))) (or (or (and (and (and (= x_103 0) (not ?v_189)) (or (not (<= x_68 ?v_182)) (= x_98 x_5))) ?v_190) (and (and (and (= x_103 1) ?v_189) (xor x_5 x_9)) (= x_93 (+ ?v_182 x_89)))) (and (and (and (= x_103 2) ?v_189) (= x_5 x_9)) ?v_190))) (or (or (and (and (and (= x_104 0) ?v_191) (or (not (<= x_72 ?v_187)) (= x_10 x_7))) ?v_194) (and (and (and (= x_104 1) ?v_186) (not ?v_193)) (= x_95 ?v_192))) (and (and (and (= x_104 2) ?v_186) ?v_193) ?v_194))) (or (and (and (and (and (and (and (and (and (and (= x_79 0) (= x_4 x_80)) (= ?v_195 x_70)) (<= (+ ?v_195 x_76) x_71)) (or ?v_198 (= x_5 x_0))) (= x_81 x_82)) (= x_83 x_84)) (= x_67 x_66)) ?v_196) ?v_197) (and (and (and (and (and (and (and (and (and (= x_79 1) (= x_83 x_82)) (= ?v_195 x_66)) (<= (+ ?v_195 x_77) x_67)) (or (and (and (= x_85 0) ?v_196) ?v_197) (and (and (= x_85 1) (= x_75 x_84)) (= x_74 (not x_75))))) (= x_86 x_80)) (= x_4 x_0)) (= x_6 x_2)) (= x_71 x_70)) ?v_198))) (or (or (and (and (and (= x_87 0) ?v_204) (or (not (<= x_65 ?v_200)) (= x_86 x_75))) ?v_201) (and (and (and (= x_87 1) ?v_199) (xor x_75 x_74)) (= x_64 ?v_205))) (and (and (and (= x_87 2) ?v_199) (= x_75 x_74)) ?v_201))) (or (or (and (and (and (= x_88 0) (not ?v_202)) (or (not (<= x_69 ?v_195)) (= x_81 x_1))) ?v_203) (and (and (and (= x_88 1) ?v_202) (xor x_1 x_5)) (= x_68 (+ ?v_195 x_89)))) (and (and (and (= x_88 2) ?v_202) (= x_1 x_5)) ?v_203))) (or (or (and (and (and (= x_90 0) ?v_204) (or (not (<= x_73 ?v_200)) (= x_6 x_3))) ?v_207) (and (and (and (= x_90 1) ?v_199) (not ?v_206)) (= x_72 ?v_205))) (and (and (and (= x_90 2) ?v_199) ?v_206) ?v_207))) (xor x_295 x_296)) (not (= x_301 x_293))))))))))))))))))))))
(check-sat)
(exit)
